
! --- SIMULATION CONTROL (from Nestli template) ---

Version,
    23.1.0.002;    !- Version Identifier


SimulationControl,
    Yes,
    Yes,
    Yes,
    No,
    Yes;


Building,
    Foursquare,
    0,
    Suburbs,
    .04,
    .4,
    FullInteriorAndExteriorWithReflections,
    25,
    6;


ShadowCalculation,
    PolygonClipping,
    Timestep,
    1,
    15000,
    SutherlandHodgman,
    ,
    DetailedSkyDiffuseModeling;



HeatBalanceAlgorithm,
    ConductionTransferFunction,
    2000,
    0.00000001,
    1000;


SurfaceConvectionAlgorithm:Inside,
    TARP;

SurfaceConvectionAlgorithm:Outside,
    DOE-2;

ZoneCapacitanceMultiplier:ResearchSpecial,
    All,
    ,
    1,
    1.0,
    1.0,
    1.0;


ZoneAirContaminantBalance,
    No,
    ,
    Yes,
    Off 24/7;


Timestep,
    60;


ConvergenceLimits,
    1,
    25;


! --- RUN PERIOD (from Nestli template) ---


RunPeriod,
    Occupancy,
    1,
    1,
    2002,
    1,
    2,
    2002,
    ,
    No,
    No,
    Yes,
    Yes,
    Yes,
    No;


RunPeriodControl:DaylightSavingTime,
    1st Sunday in April,
    Last Sunday in October;


! --- SITE & GROUND TEMPERATURES ---


! Hourly weather file: C:\ProgramData\DesignBuilder\Weather Data\USA_TX_SAN ANTONIO INTL AP_TMY3.epw

Site:Location,
    Occupancy (01-01:02-01)  (01-01:02-01),
    29.53,
    -98.46,
    -6,
    247;


Site:GroundTemperature:BuildingSurface,
    18,    !- January Ground Temperature
    18,    !- February Ground Temperature
    18,    !- March Ground Temperature
    18,    !- April Ground Temperature
    18,    !- May Ground Temperature
    18,    !- June Ground Temperature
    18,    !- July Ground Temperature
    18,    !- August Ground Temperature
    18,    !- September Ground Temperature
    18,    !- October Ground Temperature
    18,    !- November Ground Temperature
    18;    !- December Ground Temperature


Site:GroundTemperature:FCfactorMethod,
    1.6,    !- January Ground Temperature
    0.7,    !- February Ground Temperature
    2.3,    !- March Ground Temperature
    4.8,    !- April Ground Temperature
    11.2,    !- May Ground Temperature
    16.2,    !- June Ground Temperature
    19.6,    !- July Ground Temperature
    20.6,    !- August Ground Temperature
    18.9,    !- September Ground Temperature
    15,    !- October Ground Temperature
    9.8,    !- November Ground Temperature
    5;    !- December Ground Temperature


Site:GroundTemperature:Shallow,
    14,    !- January Surface Ground Temperature
    14,    !- February Surface Ground Temperature
    14,    !- March Surface Ground Temperature
    14,    !- April Surface Ground Temperature
    14,    !- May Surface Ground Temperature
    14,    !- June Surface Ground Temperature
    14,    !- July Surface Ground Temperature
    14,    !- August Surface Ground Temperature
    14,    !- September Surface Ground Temperature
    14,    !- October Surface Ground Temperature
    14,    !- November Surface Ground Temperature
    14;    !- December Surface Ground Temperature


Site:GroundTemperature:Deep,
    14,    !- January Deep Ground Temperature
    14,    !- February Deep Ground Temperature
    14,    !- March Deep Ground Temperature
    14,    !- April Deep Ground Temperature
    14,    !- May Deep Ground Temperature
    14,    !- June Deep Ground Temperature
    14,    !- July Deep Ground Temperature
    14,    !- August Deep Ground Temperature
    14,    !- September Deep Ground Temperature
    14,    !- October Deep Ground Temperature
    14,    !- November Deep Ground Temperature
    14;    !- December Deep Ground Temperature


Site:GroundReflectance,
    0.2,
    0.2,
    0.2,
    0.2,
    0.2,
    0.2,
    0.2,
    0.2,
    0.2,
    0.2,
    0.2,
    0.2;


Site:WaterMainsTemperature,
    Correlation,
    ,
    10,
    20;


! --- SCHEDULE TYPE LIMITS ---


ScheduleTypeLimits,
    FRACTION,    !- Name
    0,    !- Lower Limit Value
    1,    !- Upper Limit Value
    CONTINUOUS;    !- Numeric Type


ScheduleTypeLimits,
    ANY;    !- Name


ScheduleTypeLimits,
    TEMPERATURE,    !- Name
    -60,    !- Lower Limit Value
    200,    !- Upper Limit Value
    DISCRETE;    !- Numeric Type


! --- SCHEDULES (from CESAR-P) ---


Schedule:File,
    mfh_nominal_occupancy,    !- Name
    FRACTION,    !- Schedule Type Limits Name
    profiles/mfh_nominal_occupancy.csv,    !- File Name
    1,    !- Column Number
    0,    !- Rows to Skip at Top
    8760,    !- Number of Hours of Data
    Comma,    !- Column Separator
    No;    !- Interpolate to Timestep


Schedule:File,
    mfh_nominal_activity,    !- Name
    ANY,    !- Schedule Type Limits Name
    profiles/mfh_nominal_activity.csv,    !- File Name
    1,    !- Column Number
    0,    !- Rows to Skip at Top
    8760,    !- Number of Hours of Data
    Comma,    !- Column Separator
    No;    !- Interpolate to Timestep


Schedule:File,
    mfh_nominal_lighting,    !- Name
    FRACTION,    !- Schedule Type Limits Name
    profiles/mfh_nominal_lighting.csv,    !- File Name
    1,    !- Column Number
    0,    !- Rows to Skip at Top
    8760,    !- Number of Hours of Data
    Comma,    !- Column Separator
    No;    !- Interpolate to Timestep


Schedule:File,
    mfh_nominal_appliances,    !- Name
    FRACTION,    !- Schedule Type Limits Name
    profiles/mfh_nominal_appliances.csv,    !- File Name
    1,    !- Column Number
    0,    !- Rows to Skip at Top
    8760,    !- Number of Hours of Data
    Comma,    !- Column Separator
    No;    !- Interpolate to Timestep


Schedule:File,
    mfh_nominal_dhw,    !- Name
    FRACTION,    !- Schedule Type Limits Name
    profiles/mfh_nominal_dhw.csv,    !- File Name
    1,    !- Column Number
    0,    !- Rows to Skip at Top
    8760,    !- Number of Hours of Data
    Comma,    !- Column Separator
    No;    !- Interpolate to Timestep


Schedule:File,
    mfh_nominal_thermostat_heating,    !- Name
    TEMPERATURE,    !- Schedule Type Limits Name
    profiles/mfh_nominal_thermostat_heating.csv,    !- File Name
    1,    !- Column Number
    0,    !- Rows to Skip at Top
    8760,    !- Number of Hours of Data
    Comma,    !- Column Separator
    No;    !- Interpolate to Timestep


Schedule:File,
    mfh_nominal_thermostat_cooling,    !- Name
    TEMPERATURE,    !- Schedule Type Limits Name
    profiles/mfh_nominal_thermostat_cooling.csv,    !- File Name
    1,    !- Column Number
    0,    !- Rows to Skip at Top
    8760,    !- Number of Hours of Data
    Comma,    !- Column Separator
    No;    !- Interpolate to Timestep


Schedule:File,
    mfh_nominal_ventilation,    !- Name
    FRACTION,    !- Schedule Type Limits Name
    profiles/mfh_nominal_ventilation.csv,    !- File Name
    1,    !- Column Number
    0,    !- Rows to Skip at Top
    8760,    !- Number of Hours of Data
    Comma,    !- Column Separator
    No;    !- Interpolate to Timestep


Schedule:Constant,
    Constant_1,    !- Name
    FRACTION,    !- Schedule Type Limits Name
    1;    !- Hourly Value


! --- MATERIALS (from CESAR-P) ---


Material,
    Ground_1918_T2_Layer1,    !- Name
    Rough,    !- Roughness
    0.015,    !- Thickness
    0.87,    !- Conductivity
    1600,    !- Density
    1000,    !- Specific Heat
    9.000000e-03,    !- Thermal Absorptance
    0.006,    !- Solar Absorptance
    0.006;    !- Visible Absorptance


Material,
    Ground_1918_T2_Layer2,    !- Name
    Rough,    !- Roughness
    0.16,    !- Thickness
    2.3,    !- Conductivity
    2300,    !- Density
    1000,    !- Specific Heat
    9.000000e-03,    !- Thermal Absorptance
    0.006,    !- Solar Absorptance
    0.006;    !- Visible Absorptance


Material,
    Ground_1918_T2_Layer3,    !- Name
    Rough,    !- Roughness
    0.03,    !- Thickness
    0.047,    !- Conductivity
    250,    !- Density
    1300,    !- Specific Heat
    9.000000e-03,    !- Thermal Absorptance
    0.006,    !- Solar Absorptance
    0.006;    !- Visible Absorptance


Material,
    Ground_1918_T2_Layer4,    !- Name
    Rough,    !- Roughness
    0.02,    !- Thickness
    0.7,    !- Conductivity
    1600,    !- Density
    1000,    !- Specific Heat
    9.000000e-03,    !- Thermal Absorptance
    7.000000e-03,    !- Solar Absorptance
    0.006999999999999999;    !- Visible Absorptance


Material,
    Ground_1918_T2_Layer5,    !- Name
    Rough,    !- Roughness
    0.025,    !- Thickness
    0.14,    !- Conductivity
    550,    !- Density
    2300,    !- Specific Heat
    9.000000e-03,    !- Thermal Absorptance
    0.006,    !- Solar Absorptance
    0.006;    !- Visible Absorptance


Material,
    Internal Ceiling_Layer1,    !- Name
    Rough,    !- Roughness
    0.1,    !- Thickness
    1.4,    !- Conductivity
    2100,    !- Density
    840,    !- Specific Heat
    9.000000e-03,    !- Thermal Absorptance
    0.006,    !- Solar Absorptance
    0.006;    !- Visible Absorptance


Material,
    Wall_1918_T4_Layer1,    !- Name
    Rough,    !- Roughness
    0.115,    !- Thickness
    0.96,    !- Conductivity
    2000,    !- Density
    840,    !- Specific Heat
    9.000000e-03,    !- Thermal Absorptance
    0.006,    !- Solar Absorptance
    0.006;    !- Visible Absorptance


Material,
    Wall_1918_T4_Layer3,    !- Name
    Rough,    !- Roughness
    0.115,    !- Thickness
    0.81,    !- Conductivity
    1500,    !- Density
    840,    !- Specific Heat
    9.000000e-03,    !- Thermal Absorptance
    0.006,    !- Solar Absorptance
    0.006;    !- Visible Absorptance


Material,
    Wall_1918_T4_Layer4,    !- Name
    Rough,    !- Roughness
    0.015,    !- Thickness
    0.7,    !- Conductivity
    1100,    !- Density
    900,    !- Specific Heat
    9.000000e-03,    !- Thermal Absorptance
    0.006,    !- Solar Absorptance
    0.006;    !- Visible Absorptance


Material,
    Roof_1918_T1_Layer1,    !- Name
    Rough,    !- Roughness
    0.02,    !- Thickness
    0.14,    !- Conductivity
    550,    !- Density
    2300,    !- Specific Heat
    9.000000e-03,    !- Thermal Absorptance
    0.006,    !- Solar Absorptance
    0.006;    !- Visible Absorptance


Material,
    Roof_1918_T1_Layer2,    !- Name
    Rough,    !- Roughness
    0.04,    !- Thickness
    0.047,    !- Conductivity
    250,    !- Density
    1300,    !- Specific Heat
    9.000000e-03,    !- Thermal Absorptance
    0.006,    !- Solar Absorptance
    0.006;    !- Visible Absorptance


Material,
    Roof_1918_T1_Layer3,    !- Name
    Rough,    !- Roughness
    0.015,    !- Thickness
    0.87,    !- Conductivity
    1600,    !- Density
    1000,    !- Specific Heat
    9.000000e-03,    !- Thermal Absorptance
    0.006,    !- Solar Absorptance
    0.006;    !- Visible Absorptance


Material:AirGap,
    Wall_1918_T4_Layer2,    !- Name
    0.17500000000000002;    !- Thermal Resistance


! --- WINDOW MATERIALS (from CESAR-P) ---


WindowMaterial:Glazing,
    Window_1918_T1_Layer1,    !- Name
    SpectralAverage,    !- Optical Data Type
    ,    !- Window Glass Spectral Data Set Name
    0.006,    !- Thickness
    7.750000e-03,    !- Solar Transmittance at Normal Incidence
    7.100000e-04,    !- Front Side Solar Reflectance at Normal Incidence
    7.100000e-04,    !- Back Side Solar Reflectance at Normal Incidence
    0.00881,    !- Visible Transmittance at Normal Incidence
    0.0008,    !- Front Side Visible Reflectance at Normal Incidence
    0.0008,    !- Back Side Visible Reflectance at Normal Incidence
    0,    !- Infrared Transmittance at Normal Incidence
    0.0084,    !- Front Side Infrared Hemispherical Emissivity
    0.0084,    !- Back Side Infrared Hemispherical Emissivity
    0.9,    !- Conductivity
    0.01,    !- Dirt Correction Factor for Solar and Visible Transmittance
    No,    !- Solar Diffusing
    72000000000,    !- Youngs modulus
    0.22;    !- Poissons ratio


WindowMaterial:Glazing,
    Window_1918_T1_Layer3,    !- Name
    SpectralAverage,    !- Optical Data Type
    ,    !- Window Glass Spectral Data Set Name
    0.005,    !- Thickness
    7.750000e-03,    !- Solar Transmittance at Normal Incidence
    7.100000e-04,    !- Front Side Solar Reflectance at Normal Incidence
    7.100000e-04,    !- Back Side Solar Reflectance at Normal Incidence
    0.00881,    !- Visible Transmittance at Normal Incidence
    0.0008,    !- Front Side Visible Reflectance at Normal Incidence
    0.0008,    !- Back Side Visible Reflectance at Normal Incidence
    0,    !- Infrared Transmittance at Normal Incidence
    0.0084,    !- Front Side Infrared Hemispherical Emissivity
    0.0084,    !- Back Side Infrared Hemispherical Emissivity
    0.9,    !- Conductivity
    0.01,    !- Dirt Correction Factor for Solar and Visible Transmittance
    No,    !- Solar Diffusing
    72000000000,    !- Youngs modulus
    0.22;    !- Poissons ratio


WindowMaterial:Gas,
    Window_1918_T1_Layer2,    !- Name
    Air,    !- Gas Type
    0.01;    !- Thickness


WindowMaterial:Shade,
    Shade0101,    !- Name
    0.0031,    !- Solar Transmittance
    0.005,    !- Solar Reflectance
    0.0031,    !- Visible Transmittance
    0.005,    !- Visible Reflectance
    9.000000e-03,    !- Infrared Hemispherical Emissivity
    0,    !- Infrared Transmittance
    0.001,    !- Thickness
    0.9,    !- Conductivity
    0.1,    !- Shade to Glass Distance
    0,    !- Top Opening Multiplier
    0,    !- Bottom Opening Multiplier
    0,    !- LeftSide Opening Multiplier
    0,    !- RightSide Opening Multiplier
    0;    !- Airflow Permeability


! --- CONSTRUCTIONS (from CESAR-P) ---


Construction,
    Ground 1918 Concrete Medium,    !- Name
    Ground_1918_T2_Layer1,    !- Outside Layer
    Ground_1918_T2_Layer2,    !- Layer 2
    Ground_1918_T2_Layer3,    !- Layer 3
    Ground_1918_T2_Layer4,    !- Layer 4
    Ground_1918_T2_Layer5;    !- Layer 5


Construction,
    Floor Internal Ceiling,    !- Name
    Internal Ceiling_Layer1;    !- Outside Layer


Construction,
    Floor Internal Ceiling Mirrored,    !- Name
    Internal Ceiling_Layer1;    !- Outside Layer


Construction,
    Wall 1918 Brick Dl Medium,    !- Name
    Wall_1918_T4_Layer1,    !- Outside Layer
    Wall_1918_T4_Layer2,    !- Layer 2
    Wall_1918_T4_Layer3,    !- Layer 3
    Wall_1918_T4_Layer4;    !- Layer 4


Construction,
    Roof 1918 Peatfiber Medium,    !- Name
    Roof_1918_T1_Layer1,    !- Outside Layer
    Roof_1918_T1_Layer2,    !- Layer 2
    Roof_1918_T1_Layer3;    !- Layer 3


Construction,
    Window 1918 Standard,    !- Name
    Window_1918_T1_Layer1,    !- Outside Layer
    Window_1918_T1_Layer2,    !- Layer 2
    Window_1918_T1_Layer3;    !- Layer 3


! --- GEOMETRY (from CESAR-P) ---


Zone,
    FLOOR0:ZONE0,    !- Name
    0,    !- Direction of Relative North
    0,    !- X Origin
    0,    !- Y Origin
    0,    !- Z Origin
    1,    !- Type
    1,    !- Multiplier
    autocalculate,    !- Ceiling Height
    autocalculate,    !- Volume
    autocalculate,    !- Floor Area
    ,    !- Zone Inside Convection Algorithm
    ,    !- Zone Outside Convection Algorithm
    Yes;    !- Part of Total Floor Area


BuildingSurface:Detailed,
    FLOOR0:ZONE0_GroundFloor,    !- Name
    Floor,    !- Surface Type
    Ground 1918 Concrete Medium,    !- Construction Name
    FLOOR0:ZONE0,    !- Zone Name
    Ground,    !- Outside Boundary Condition
    ,    !- Outside Boundary Condition Object
    NoSun,    !- Sun Exposure
    NoWind,    !- Wind Exposure
    1,    !- View Factor to Ground
    4,    !- Number of Vertices
    0.00000,    !- Vertex 1 Xcoordinate
    0.00000,    !- Vertex 1 Ycoordinate
    0.00000,    !- Vertex 1 Zcoordinate
    19.18017,    !- Vertex 2 Xcoordinate
    20.86418,    !- Vertex 2 Ycoordinate
    0.00000,    !- Vertex 2 Zcoordinate
    35.96266,    !- Vertex 3 Xcoordinate
    5.43626,    !- Vertex 3 Ycoordinate
    0.00000,    !- Vertex 3 Zcoordinate
    16.78249,    !- Vertex 4 Xcoordinate
    -15.42792,    !- Vertex 4 Ycoordinate
    0.00000;    !- Vertex 4 Zcoordinate


BuildingSurface:Detailed,
    FLOOR0:ZONE0_Wall_0,    !- Name
    Wall,    !- Surface Type
    Wall 1918 Brick Dl Medium,    !- Construction Name
    FLOOR0:ZONE0,    !- Zone Name
    Outdoors,    !- Outside Boundary Condition
    ,    !- Outside Boundary Condition Object
    SunExposed,    !- Sun Exposure
    WindExposed,    !- Wind Exposure
    autocalculate,    !- View Factor to Ground
    4,    !- Number of Vertices
    19.18017,    !- Vertex 1 Xcoordinate
    20.86418,    !- Vertex 1 Ycoordinate
    0.00000,    !- Vertex 1 Zcoordinate
    0.00000,    !- Vertex 2 Xcoordinate
    0.00000,    !- Vertex 2 Ycoordinate
    0.00000,    !- Vertex 2 Zcoordinate
    0.00000,    !- Vertex 3 Xcoordinate
    0.00000,    !- Vertex 3 Ycoordinate
    3.22777,    !- Vertex 3 Zcoordinate
    19.18017,    !- Vertex 4 Xcoordinate
    20.86418,    !- Vertex 4 Ycoordinate
    3.22777;    !- Vertex 4 Zcoordinate


BuildingSurface:Detailed,
    FLOOR0:ZONE0_Wall_1,    !- Name
    Wall,    !- Surface Type
    Wall 1918 Brick Dl Medium,    !- Construction Name
    FLOOR0:ZONE0,    !- Zone Name
    Outdoors,    !- Outside Boundary Condition
    ,    !- Outside Boundary Condition Object
    SunExposed,    !- Sun Exposure
    WindExposed,    !- Wind Exposure
    autocalculate,    !- View Factor to Ground
    4,    !- Number of Vertices
    35.96266,    !- Vertex 1 Xcoordinate
    5.43626,    !- Vertex 1 Ycoordinate
    0.00000,    !- Vertex 1 Zcoordinate
    19.18017,    !- Vertex 2 Xcoordinate
    20.86418,    !- Vertex 2 Ycoordinate
    0.00000,    !- Vertex 2 Zcoordinate
    19.18017,    !- Vertex 3 Xcoordinate
    20.86418,    !- Vertex 3 Ycoordinate
    3.22777,    !- Vertex 3 Zcoordinate
    35.96266,    !- Vertex 4 Xcoordinate
    5.43626,    !- Vertex 4 Ycoordinate
    3.22777;    !- Vertex 4 Zcoordinate


BuildingSurface:Detailed,
    FLOOR0:ZONE0_Wall_2,    !- Name
    Wall,    !- Surface Type
    Wall 1918 Brick Dl Medium,    !- Construction Name
    FLOOR0:ZONE0,    !- Zone Name
    Outdoors,    !- Outside Boundary Condition
    ,    !- Outside Boundary Condition Object
    SunExposed,    !- Sun Exposure
    WindExposed,    !- Wind Exposure
    autocalculate,    !- View Factor to Ground
    4,    !- Number of Vertices
    16.78249,    !- Vertex 1 Xcoordinate
    -15.42792,    !- Vertex 1 Ycoordinate
    0.00000,    !- Vertex 1 Zcoordinate
    35.96266,    !- Vertex 2 Xcoordinate
    5.43626,    !- Vertex 2 Ycoordinate
    0.00000,    !- Vertex 2 Zcoordinate
    35.96266,    !- Vertex 3 Xcoordinate
    5.43626,    !- Vertex 3 Ycoordinate
    3.22777,    !- Vertex 3 Zcoordinate
    16.78249,    !- Vertex 4 Xcoordinate
    -15.42792,    !- Vertex 4 Ycoordinate
    3.22777;    !- Vertex 4 Zcoordinate


BuildingSurface:Detailed,
    FLOOR0:ZONE0_Wall_3,    !- Name
    Wall,    !- Surface Type
    Wall 1918 Brick Dl Medium,    !- Construction Name
    FLOOR0:ZONE0,    !- Zone Name
    Outdoors,    !- Outside Boundary Condition
    ,    !- Outside Boundary Condition Object
    SunExposed,    !- Sun Exposure
    WindExposed,    !- Wind Exposure
    autocalculate,    !- View Factor to Ground
    4,    !- Number of Vertices
    0.00000,    !- Vertex 1 Xcoordinate
    0.00000,    !- Vertex 1 Ycoordinate
    0.00000,    !- Vertex 1 Zcoordinate
    16.78249,    !- Vertex 2 Xcoordinate
    -15.42792,    !- Vertex 2 Ycoordinate
    0.00000,    !- Vertex 2 Zcoordinate
    16.78249,    !- Vertex 3 Xcoordinate
    -15.42792,    !- Vertex 3 Ycoordinate
    3.22777,    !- Vertex 3 Zcoordinate
    0.00000,    !- Vertex 4 Xcoordinate
    0.00000,    !- Vertex 4 Ycoordinate
    3.22777;    !- Vertex 4 Zcoordinate


BuildingSurface:Detailed,
    FLOOR0:ZONE0_Roof,    !- Name
    Roof,    !- Surface Type
    Roof 1918 Peatfiber Medium,    !- Construction Name
    FLOOR0:ZONE0,    !- Zone Name
    Outdoors,    !- Outside Boundary Condition
    ,    !- Outside Boundary Condition Object
    SunExposed,    !- Sun Exposure
    WindExposed,    !- Wind Exposure
    0,    !- View Factor to Ground
    4,    !- Number of Vertices
    16.78249,    !- Vertex 1 Xcoordinate
    -15.42792,    !- Vertex 1 Ycoordinate
    3.22777,    !- Vertex 1 Zcoordinate
    35.96266,    !- Vertex 2 Xcoordinate
    5.43626,    !- Vertex 2 Ycoordinate
    3.22777,    !- Vertex 2 Zcoordinate
    19.18017,    !- Vertex 3 Xcoordinate
    20.86418,    !- Vertex 3 Ycoordinate
    3.22777,    !- Vertex 3 Zcoordinate
    0.00000,    !- Vertex 4 Xcoordinate
    0.00000,    !- Vertex 4 Ycoordinate
    3.22777;    !- Vertex 4 Zcoordinate


FenestrationSurface:Detailed,
    FLOOR0:ZONE0_Wall_0_Win,    !- Name
    Window,    !- Surface Type
    Window 1918 Standard,    !- Construction Name
    FLOOR0:ZONE0_Wall_0,    !- Building Surface Name
    ,    !- Outside Boundary Condition Object
    autocalculate,    !- View Factor to Ground
    cesar-wood-aluminium-default,    !- Frame and Divider Name
    1,    !- Multiplier
    4,    !- Number of Vertices
    18.70066,    !- Vertex 1 Xcoordinate
    20.34258,    !- Vertex 1 Ycoordinate
    0.86389,    !- Vertex 1 Zcoordinate
    0.47950,    !- Vertex 2 Xcoordinate
    0.52160,    !- Vertex 2 Ycoordinate
    0.86389,    !- Vertex 2 Zcoordinate
    0.47950,    !- Vertex 3 Xcoordinate
    0.52160,    !- Vertex 3 Ycoordinate
    2.36389,    !- Vertex 3 Zcoordinate
    18.70066,    !- Vertex 4 Xcoordinate
    20.34258,    !- Vertex 4 Ycoordinate
    2.36389;    !- Vertex 4 Zcoordinate


FenestrationSurface:Detailed,
    FLOOR0:ZONE0_Wall_1_Win,    !- Name
    Window,    !- Surface Type
    Window 1918 Standard,    !- Construction Name
    FLOOR0:ZONE0_Wall_1,    !- Building Surface Name
    ,    !- Outside Boundary Condition Object
    autocalculate,    !- View Factor to Ground
    cesar-wood-aluminium-default,    !- Frame and Divider Name
    1,    !- Multiplier
    4,    !- Number of Vertices
    35.54309,    !- Vertex 1 Xcoordinate
    5.82196,    !- Vertex 1 Ycoordinate
    0.86389,    !- Vertex 1 Zcoordinate
    19.59973,    !- Vertex 2 Xcoordinate
    20.47848,    !- Vertex 2 Ycoordinate
    0.86389,    !- Vertex 2 Zcoordinate
    19.59973,    !- Vertex 3 Xcoordinate
    20.47848,    !- Vertex 3 Ycoordinate
    2.36389,    !- Vertex 3 Zcoordinate
    35.54309,    !- Vertex 4 Xcoordinate
    5.82196,    !- Vertex 4 Ycoordinate
    2.36389;    !- Vertex 4 Zcoordinate


FenestrationSurface:Detailed,
    FLOOR0:ZONE0_Wall_2_Win,    !- Name
    Window,    !- Surface Type
    Window 1918 Standard,    !- Construction Name
    FLOOR0:ZONE0_Wall_2,    !- Building Surface Name
    ,    !- Outside Boundary Condition Object
    autocalculate,    !- View Factor to Ground
    cesar-wood-aluminium-default,    !- Frame and Divider Name
    1,    !- Multiplier
    4,    !- Number of Vertices
    17.26199,    !- Vertex 1 Xcoordinate
    -14.90632,    !- Vertex 1 Ycoordinate
    0.86389,    !- Vertex 1 Zcoordinate
    35.48315,    !- Vertex 2 Xcoordinate
    4.91465,    !- Vertex 2 Ycoordinate
    0.86389,    !- Vertex 2 Zcoordinate
    35.48315,    !- Vertex 3 Xcoordinate
    4.91465,    !- Vertex 3 Ycoordinate
    2.36389,    !- Vertex 3 Zcoordinate
    17.26199,    !- Vertex 4 Xcoordinate
    -14.90632,    !- Vertex 4 Ycoordinate
    2.36389;    !- Vertex 4 Zcoordinate


FenestrationSurface:Detailed,
    FLOOR0:ZONE0_Wall_3_Win,    !- Name
    Window,    !- Surface Type
    Window 1918 Standard,    !- Construction Name
    FLOOR0:ZONE0_Wall_3,    !- Building Surface Name
    ,    !- Outside Boundary Condition Object
    autocalculate,    !- View Factor to Ground
    cesar-wood-aluminium-default,    !- Frame and Divider Name
    1,    !- Multiplier
    4,    !- Number of Vertices
    0.41956,    !- Vertex 1 Xcoordinate
    -0.38570,    !- Vertex 1 Ycoordinate
    0.86389,    !- Vertex 1 Zcoordinate
    16.36293,    !- Vertex 2 Xcoordinate
    -15.04222,    !- Vertex 2 Ycoordinate
    0.86389,    !- Vertex 2 Zcoordinate
    16.36293,    !- Vertex 3 Xcoordinate
    -15.04222,    !- Vertex 3 Ycoordinate
    2.36389,    !- Vertex 3 Zcoordinate
    0.41956,    !- Vertex 4 Xcoordinate
    -0.38570,    !- Vertex 4 Ycoordinate
    2.36389;    !- Vertex 4 Zcoordinate


! --- WINDOW SHADING & FRAME (from CESAR-P) ---


WindowShadingControl,
    shade_control_ZoneFloor0,    !- Name
    FLOOR0:ZONE0,    !- Zone Name
    1,    !- Shading Control Sequence Number
    ExteriorShade,    !- Shading Type
    ,    !- Construction with Shading Name
    OnIfHighSolarOnWindow,    !- Shading Control Type
    ,    !- Schedule Name
    90,    !- Setpoint
    No,    !- Shading Control Is Scheduled
    No,    !- Glare Control Is Active
    Shade0101,    !- Shading Device Material Name
    FixedSlatAngle,    !- Type of Slat Angle Control for Blinds
    ,    !- Slat Angle Schedule Name
    ,    !- Setpoint 2
    ,    !- Daylighting Control Object Name
    Sequential,    !- Multiple Surface Control Type
    FLOOR0:ZONE0_Wall_0_Win,    !- Fenestration Surface 1 Name
    FLOOR0:ZONE0_Wall_1_Win,    !- Fenestration Surface 2 Name
    FLOOR0:ZONE0_Wall_2_Win,    !- Fenestration Surface 3 Name
    FLOOR0:ZONE0_Wall_3_Win;    !- Fenestration Surface 4 Name


WindowProperty:FrameAndDivider,
    cesar-wood-aluminium-default,    !- Name
    0.04,    !- Frame Width
    0,    !- Frame Outside Projection
    0,    !- Frame Inside Projection
    9.5,    !- Frame Conductance
    1,    !- Ratio of FrameEdge Glass Conductance to CenterOfGlass Conductance
    0.5,    !- Frame Solar Absorptance
    0.5,    !- Frame Visible Absorptance
    0.9,    !- Frame Thermal Hemispherical Emissivity
    DividedLite,    !- Divider Type
    0,    !- Divider Width
    0,    !- Number of Horizontal Dividers
    0,    !- Number of Vertical Dividers
    0,    !- Divider Outside Projection
    0,    !- Divider Inside Projection
    0,    !- Divider Conductance
    1,    !- Ratio of DividerEdge Glass Conductance to CenterOfGlass Conductance
    0,    !- Divider Solar Absorptance
    0,    !- Divider Visible Absorptance
    0.9,    !- Divider Thermal Hemispherical Emissivity
    0.5,    !- Outside Reveal Solar Absorptance
    0,    !- Inside Sill Depth
    0,    !- Inside Sill Solar Absorptance
    0,    !- Inside Reveal Depth
    0;    !- Inside Reveal Solar Absorptance


! --- INTERNAL GAINS (from CESAR-P) ---


People,
    FLOOR0:ZONE0_People,    !- Name
    FLOOR0:ZONE0,    !- Zone or ZoneList Name
    mfh_nominal_occupancy,    !- Number of People Schedule Name
    Area/Person,    !- Number of People Calculation Method
    ,    !- Number of People
    ,    !- People per Zone Floor Area
    25.64103,    !- Zone Floor Area per Person
    0.3,    !- Fraction Radiant
    autocalculate,    !- Sensible Heat Fraction
    mfh_nominal_activity,    !- Activity Level Schedule Name
    3.82e-08,    !- Carbon Dioxide Generation Rate
    No,    !- Enable ASHRAE 55 Comfort Warnings
    ZoneAveraged,    !- Mean Radiant Temperature Calculation Type
    ,    !- Surface NameAngle Factor List Name
    ,    !- Work Efficiency Schedule Name
    ClothingInsulationSchedule;    !- Clothing Insulation Calculation Method


Lights,
    FLOOR0:ZONE0_Lights,    !- Name
    FLOOR0:ZONE0,    !- Zone or ZoneList Name
    mfh_nominal_lighting,    !- Schedule Name
    Watts/Area,    !- Design Level Calculation Method
    ,    !- Lighting Level
    10.3104,    !- Watts per Zone Floor Area
    ,    !- Watts per Person
    0,    !- Return Air Fraction
    0.4,    !- Fraction Radiant
    0.2,    !- Fraction Visible
    1,    !- Fraction Replaceable
    General,    !- EndUse Subcategory
    No,    !- Return Air Fraction Calculated from Plenum Temperature
    0,    !- Return Air Fraction Function of Plenum Temperature Coefficient 1
    0;    !- Return Air Fraction Function of Plenum Temperature Coefficient 2


ElectricEquipment,
    FLOOR0:ZONE0_Appliances,    !- Name
    FLOOR0:ZONE0,    !- Zone or ZoneList Name
    mfh_nominal_appliances,    !- Schedule Name
    Watts/Area,    !- Design Level Calculation Method
    ,    !- Design Level
    6.4,    !- Watts per Zone Floor Area
    ,    !- Watts per Person
    0,    !- Fraction Latent
    0.75,    !- Fraction Radiant
    0,    !- Fraction Lost
    General;    !- EndUse Subcategory


HotWaterEquipment,
    FLOOR0:ZONE0_DHW,    !- Name
    FLOOR0:ZONE0,    !- Zone or ZoneList Name
    mfh_nominal_dhw,    !- Schedule Name
    Watts/Area,    !- Design Level Calculation Method
    ,    !- Design Level
    4.216667,    !- Power per Zone Floor Area
    ,    !- Power per Person
    0,    !- Fraction Latent
    0,    !- Fraction Radiant
    1,    !- Fraction Lost
    General;    !- EndUse Subcategory


ZoneInfiltration:DesignFlowRate,
    FLOOR0:ZONE0_Infiltration,    !- Name
    FLOOR0:ZONE0,    !- Zone or ZoneList Name
    Constant_1,    !- Schedule Name
    AirChanges/Hour,    !- Design Flow Rate Calculation Method
    ,    !- Design Flow Rate
    ,    !- Flow per Zone Floor Area
    ,    !- Flow per Exterior Surface Area
    0.551666667,    !- Air Changes per Hour
    1,    !- Constant Term Coefficient
    0,    !- Temperature Term Coefficient
    0,    !- Velocity Term Coefficient
    0;    !- Velocity Squared Term Coefficient


! --- OUTDOOR AIR (from CESAR-P) ---


DesignSpecification:OutdoorAir,
    FIXED_mfh_nominal_Residential_outdoorair,    !- Name
    Flow/Area,    !- Outdoor Air Method
    0,    !- Outdoor Air Flow per Person
    0.001297222,    !- Outdoor Air Flow per Zone Floor Area
    0,    !- Outdoor Air Flow per Zone
    0,    !- Outdoor Air Flow Air Changes per Hour
    mfh_nominal_ventilation;    !- Outdoor Air Schedule Name


! --- HVAC (from CESAR-P, placeholder) ---


HVACTemplate:Thermostat,
    FIXED_mfh_nominal_Residential_thermostat,    !- Name
    mfh_nominal_thermostat_heating,    !- Heating Setpoint Schedule Name
    ,    !- Constant Heating Setpoint
    mfh_nominal_thermostat_cooling,    !- Cooling Setpoint Schedule Name
    ;    !- Constant Cooling Setpoint


HVACTemplate:Zone:IdealLoadsAirSystem,
    FLOOR0:ZONE0,    !- Zone Name
    FIXED_mfh_nominal_Residential_thermostat,    !- Template Thermostat Name
    ,    !- System Availability Schedule Name
    50,    !- Maximum Heating Supply Air Temperature
    13,    !- Minimum Cooling Supply Air Temperature
    0.0156,    !- Maximum Heating Supply Air Humidity Ratio
    0.0077,    !- Minimum Cooling Supply Air Humidity Ratio
    NoLimit,    !- Heating Limit
    ,    !- Maximum Heating Air Flow Rate
    ,    !- Maximum Sensible Heating Capacity
    NoLimit,    !- Cooling Limit
    ,    !- Maximum Cooling Air Flow Rate
    ,    !- Maximum Total Cooling Capacity
    ,    !- Heating Availability Schedule Name
    ,    !- Cooling Availability Schedule Name
    ConstantSensibleHeatRatio,    !- Dehumidification Control Type
    0.7,    !- Cooling Sensible Heat Ratio
    60,    !- Dehumidification Setpoint
    None,    !- Humidification Control Type
    30,    !- Humidification Setpoint
    DetailedSpecification,    !- Outdoor Air Method
    0,    !- Outdoor Air Flow Rate per Person
    0,    !- Outdoor Air Flow Rate per Zone Floor Area
    0,    !- Outdoor Air Flow Rate per Zone
    FIXED_mfh_nominal_Residential_outdoorair,    !- Design Specification Outdoor Air Object Name
    None,    !- Demand Controlled Ventilation Type
    NoEconomizer,    !- Outdoor Air Economizer Type
    None,    !- Heat Recovery Type
    0.7,    !- Sensible Heat Recovery Effectiveness
    0.65;    !- Latent Heat Recovery Effectiveness


! --- SIZING (from Nestli template) ---

Sizing:Parameters,
    1.25,
    1.15,
    60;



SizingPeriod:DesignDay,
    Summer Design Day in Occupancy (01-01:02-01) Jun,
    6,
    15,
    SummerDesignDay,
    37.2,
    11,
    ,
    ,
    WetBulb,
    23.1,
    ,
    ,
    ,
    ,
    98392.7,
    0,
    0,
    No,
    No,
    Yes,
    ASHRAEClearSky,
    ,
    ,
    ,
    ,
    0.98;


SizingPeriod:DesignDay,
    Winter Design Day in Occupancy (01-01:02-01),
    1,
    15,
    WinterDesignDay,
    -1.5,
    0,
    ,
    ,
    WetBulb,
    -1.5,
    ,
    ,
    ,
    ,
    98392.7,
    3.1,
    10,
    No,
    No,
    No,
    ,
    ,
    ,
    ,
    ,
    0;


! --- OUTPUT VARIABLES & METERS ---


Output:VariableDictionary,
    IDF;    !- Key Field


Output:Table:SummaryReports,
    AllSummary;    !- Report 1 Name


OutputControl:Table:Style,
    CommaAndHTML,    !- Column Separator
    JtoKWH;    !- Unit Conversion


Output:Variable,
    *,    !- Key Value
    Zone Air Temperature,    !- Variable Name
    RunPeriod;    !- Reporting Frequency


Output:Variable,
    *,    !- Key Value
    Zone Ideal Loads Supply Air Total Heating Energy,    !- Variable Name
    RunPeriod;    !- Reporting Frequency


Output:Variable,
    *,    !- Key Value
    Zone Ideal Loads Supply Air Total Cooling Energy,    !- Variable Name
    RunPeriod;    !- Reporting Frequency


Output:Variable,
    *,    !- Key Value
    Hot Water Equipment District Heating Energy,    !- Variable Name
    RunPeriod;    !- Reporting Frequency


Output:Variable,
    *,    !- Key Value
    Zone Ideal Loads Supply Air Sensible Heating Rate,    !- Variable Name
    RunPeriod;    !- Reporting Frequency


Output:Variable,
    *,    !- Key Value
    Hot Water Equipment District Heating Rate,    !- Variable Name
    RunPeriod;    !- Reporting Frequency


Output:Variable,
    *,    !- Key Value
    Zone Air Temperature,    !- Variable Name
    Timestep;    !- Reporting Frequency


Output:Variable,
    *,    !- Key Value
    Zone Ideal Loads Supply Air Total Heating Energy,    !- Variable Name
    Timestep;    !- Reporting Frequency


Output:Variable,
    *,    !- Key Value
    Zone Ideal Loads Supply Air Total Cooling Energy,    !- Variable Name
    Timestep;    !- Reporting Frequency


Output:Variable,
    *,    !- Key Value
    Hot Water Equipment District Heating Energy,    !- Variable Name
    Timestep;    !- Reporting Frequency


Output:Variable,
    *,    !- Key Value
    Zone Ideal Loads Supply Air Sensible Heating Rate,    !- Variable Name
    Timestep;    !- Reporting Frequency


Output:Variable,
    *,    !- Key Value
    Hot Water Equipment District Heating Rate,    !- Variable Name
    Timestep;    !- Reporting Frequency


Output:Variable,
    *,    !- Key Value
    Lights Electricity Rate,    !- Variable Name
    Timestep;    !- Reporting Frequency


Output:Variable,
    *,    !- Key Value
    Electric Equipment Electricity Rate,    !- Variable Name
    Timestep;    !- Reporting Frequency


Output:Meter,
    DistrictHeating:Building,    !- Key Name
    RunPeriod;    !- Reporting Frequency


Output:Meter,
    DistrictHeating:HVAC,    !- Key Name
    RunPeriod;    !- Reporting Frequency


Output:Meter,
    DistrictCooling:Facility,    !- Key Name
    RunPeriod;    !- Reporting Frequency


Output:Meter,
    DistrictHeating:Building,    !- Key Name
    Timestep;    !- Reporting Frequency


Output:Meter,
    DistrictHeating:HVAC,    !- Key Name
    Timestep;    !- Reporting Frequency


Output:Meter,
    DistrictCooling:Facility,    !- Key Name
    Timestep;    !- Reporting Frequency


Output:Meter,
    Electricity:Facility,    !- Key Name
    Timestep;    !- Reporting Frequency


Output:Meter,
    InteriorLights:Electricity,    !- Key Name
    Timestep;    !- Reporting Frequency


Output:Meter,
    InteriorEquipment:Electricity,    !- Key Name
    Timestep;    !- Reporting Frequency

